4 
5  02 25 40 55 
6  05 13 20 28 35 43 50 58 
7  05 13 20 28 35 43 50 58 
8  05 13 20 28 35 43 50 58 
9  13 28 43 58 
10  13 28 43 58 
11  13 28 43 58 
12  13 28 42 57 
13  12 27 42 57 
14  12 27 42 50 57 
15  05 12 20 27 35 42 50 57 
16  05 12 20 27 35 42 50 57 
17  05 12 20 27 34 42 49 57 
18  04 12 19 27 43 58 
19  13 28 43 
20  00 15 30 45 
21  00 15 30 45 
22  00 15 30 48 
23 
